N = 9;
H = 6;
T = 2;

avail = array3d(1..N, 1..H, 1..T, [7, 8, 7, 6, 8, 9, 9, 2, 3, 0, 5, 1, 7, 6, 8, 6, 9, 8, 7, 6, 4, 9, 6, 0, 9, 1, 4, 8, 4, 6, 7, 4, 7, 10, 9, 2, 9, 4, 6, 6, 8, 2, 9, 2, 9, 6, 8, 9, 1, 6, 9, 3, 4, 1, 2, 5, 10, 2, 2, 3, 0, 10, 1, 10, 1, 0, 5, 1, 4, 0, 1, 9, 1, 4, 1, 5, 8, 3, 3, 0, 2, 6, 3, 8, 1, 8, 8, 2, 3, 4, 9, 6, 0, 1, 0, 4, 5, 1, 7, 4, 5, 9, 10, 2, 8, 1, 0, 0]);

r = array2d(1..H, 1..T, [1, 3, 2, 2, 0, 3, 3, 1, 1, 2, 4, 1]);
